50
    33    80     9    68    44    45    24     1    40    34    63    60    77    62    53    95    81    37    41    95    41    55    86    88    13     3    64    47    18    60    67    81    43    95     1    42    41    67    90    23    29    26    72    57    91    14   100    17    77    60
     3    10     1    10     8     8     8     6     3     8     6     5    10     2     7     1     7     9     8     9     6     9     9     4     6     4     8     7     7     6     3     9     8     4     1     4     8     5     2     7     5     1     9     7     7     2     3     3     3     7
  1488  1886  1034  1953   798  2293  2154  2188  2220   876   955  1735  1474  1576   931   970  1430  1827  2292  1561  1603  1698  1228  1137   938  1308   914  1263  1374  2137  1384  2106  1249  1315  1149  1018  1996  2322  1156  1290  1544  1450  1704  1344  1014  1634  1718  1921  1251  2047
